p cnf 20 10
a 1 0
e 2 3 0
a 4 0
e 5 0
a 6 7 8 9 0
e 10 11 12 13 0
a 14 0
e 15 16 0
a 17 18 0
e 19 0
a 20 0
-6 -16 -14 4 -3 0
1 9 11 14 5 0
-6 15 -13 0
-9 4 0
4 8 -9 0
5 8 0
-18 -10 11 -16 -5 0
5 -10 19 1 2 0
2 12 -19 -10 -17 0
13 -8 7 18 -6 0
